# Objective value = 45
Slot(STA202G,1) 1
Slot(EFN205G,1) 1
Slot(EFN214G,1) 1
Slot(JAR418G,1) 1
Slot(TOL203F,1) 1
Slot(IDN209F,1) 1
Slot(JAR253F,1) 1
Slot(LEF617M,1) 1
Slot(UMV213F,1) 1
Slot(UAU214M,1) 1
Slot(BYG201G,1) 1
Slot(TOL401G,1) 1
Slot(RAF616M,1) 1
Slot(IDN403G,1) 1
Slot(LIF633G,1) 1
Slot(FER409G,1) 1
Slot(LIF227F,1) 1
Slot(FER210F,1) 1
Slot(TOV602M,1) 1
Slot(LIF410G,1) 1
Slot(LIF243F,1) 1
Slot(RAF601G,1) 1
Slot(EDL204G,1) 1
Slot(LIF214G,1) 1
Slot(EDL612M,1) 1
Slot(RAF201G,1) 1
Slot(LAN219G,1) 1
Slot(LAN410G,1) 1
Slot(LAN209F,1) 1
Slot(EFN202G,1) 1
Slot(JAR415G,1) 1
Slot(JAR212G,1) 1
Slot(FER208G,1) 1
Slot(UMV203M,1) 1
Slot(STA418M,1) 1
Slot(EDL402M,1) 1
Slot(BYG202M,1) 1
Slot(VEL401G,1) 1
Slot(JAR619G,1) 1
Slot(RAF404G,1) 1
Slot(EFN408G,1) 1
Slot(UMV201G,1) 1
Slot(VEL215F,1) 1
Slot(EFN612M,1) 1
Slot(VEL405G,1) 1
Slot(FER603M,2) 1
Slot(BYG603G,2) 1
Slot(JAR417G,2) 1
Slot(HBV601G,2) 1
Slot(EFN406G,2) 1
Slot(STA411G,2) 1
Slot(TOL403G,3) 1
Slot(IDN402G,3) 1
Slot(EDL205G,3) 1
Slot(LAN604M,4) 1
Slot(EDL402G,4) 1
Slot(IDN401G,4) 1
Slot(HBV201G,5) 1
Slot(EDL201G,5) 1
Slot(EDL206G,5) 1
Slot(LIF215G,5) 1
Slot(LIF401G,6) 1
Slot(REI202M,6) 1
Slot(STA205G,6) 1
Slot(LEF616M,6) 1
Slot(STA203G,7) 1
Slot(MAS201F,7) 1
Slot(EFN404G,7) 1
Slot(LIF614M,7) 1
Slot(LEF406G,8) 1
Slot(IDN603G,8) 1
Slot(BYG401G,8) 1
Slot(VEL402G,8) 1
Slot(TOV201G,8) 1
Slot(LIF412M,9) 1
Slot(STA405G,9) 1
Slot(UAU206M,9) 1
Slot(EFN208G,9) 1
Slot(JED201G,10) 1
Slot(UMV203G,10) 1
Slot(TOL202M,10) 1
Slot(RAF402G,10) 1
Slot(EDL401G,10) 1
Slot(BYG203M,10) 1
Slot(HBV402G,10) 1
Slot(LAN203G,11) 1
Slot(STA209G,11) 1
Slot(TOL203G,11) 1
Slot(VEL201G,11) 1
Slot(VEL601G,12) 1
Slot(HBV401G,12) 1
Slot(STA207G,12) 1
Slot(LIF403G,12) 1
Slot(JAR211G,13) 1
Slot(RAF401G,13) 1
Slot(STA403M,13) 1
Slot(STA401G,13) 1
Slot(LIF635G,13) 1
Slot(EFN207G,13) 1
Slot(JAR611G,13) 1
Slot(BYG201M,13) 1
Slot(TOL203M,13) 1
Slot(RAF403G,14) 1
Slot(VEL202G,14) 1
Slot(EDL403G,14) 1
Slot(EFN410G,14) 1
Slot(LIF201G,14) 1
Slot(REI201G,14) 1
Slot(VEL218F,14) 1
Slot(JAR617G,14) 1
Slot(LAN205G,14) 1
Slot(BYG601G,14) 1
Slot(JAR202G,14) 1
Slot(LIF615M,14) 1
Slot(HBV203F,14) 1
Slot(LAN401G,14) 1
Slot(FER609G,14) 1
Slot(FER211F,14) 1
Slot(EDL203G,14) 1